p tw 160 175
1 2
2 73
3 14
4 5
5 6
6 7
7 8
8 9
9 10
10 11
11 12
12 13
13 15
14 25
14 58
15 16
16 17
17 18
18 19
19 20
20 21
21 22
22 23
23 24
24 26
25 36
26 27
27 28
28 29
29 30
30 31
31 32
32 33
33 34
34 35
35 37
36 47
37 38
38 39
39 40
40 41
41 42
42 43
42 55
43 44
44 45
45 46
46 48
47 117
48 49
49 50
50 51
51 52
52 53
53 54
54 67
55 56
56 57
57 59
58 69
59 60
60 61
61 62
62 63
63 64
64 65
65 66
66 67
67 68
69 70
70 71
70 72
71 67
72 74
73 84
74 75
75 76
76 77
77 78
78 79
79 80
80 81
80 99
81 82
82 83
83 85
84 95
85 86
85 91
86 87
87 88
88 89
89 90
90 82
91 92
92 93
93 94
94 96
95 106
96 97
97 98
98 99
99 100
100 101
101 102
102 103
103 104
103 108
104 105
105 107
106 117
107 110
108 109
109 110
110 111
111 112
112 113
113 114
114 115
115 116
116 118
117 128
118 119
118 127
119 120
120 121
120 127
121 122
122 123
122 127
123 124
124 125
125 126
126 127
126 132
127 129
128 139
129 130
130 131
131 142
132 133
133 134
134 135
135 136
136 137
137 138
138 140
139 150
140 141
141 142
141 115
142 143
143 144
144 145
145 146
145 147
146 147
147 148
148 149
149 151
150 3
150 58
151 152
152 153
153 154
153 157
154 155
154 157
155 156
156 149
157 158
158 159
158 4
159 160
160 7
